p wcnf 189 222 223 
1 159 6 0 
1 -84 37 0 
1 -134 -151 0 
1 -170 78 0 
1 45 -34 0 
1 98 -41 0 
1 -166 163 0 
1 185 100 0 
1 124 64 0 
1 110 -152 0 
1 127 120 0 
1 183 109 0 
1 125 173 0 
1 -25 -26 0 
1 16 41 0 
1 105 121 0 
1 -1 79 0 
1 -145 -180 0 
1 -142 -179 0 
1 -176 -164 0 
1 25 -12 0 
1 -7 127 0 
1 -61 -3 0 
1 -139 -9 0 
1 76 -74 0 
1 14 8 0 
1 -165 30 0 
1 70 -29 0 
1 -167 -77 0 
1 54 -6 0 
1 139 153 0 
1 -184 -158 0 
1 46 -26 0 
1 43 117 0 
1 12 113 0 
1 -148 188 0 
1 -3 115 0 
1 -80 16 0 
1 -134 3 0 
1 104 -85 0 
1 -29 34 0 
1 -53 6 0 
1 138 -28 0 
1 184 166 0 
1 -182 -65 0 
1 -59 142 0 
1 32 4 0 
1 -6 -46 0 
1 106 -70 0 
1 -95 114 0 
1 -13 -24 0 
1 115 166 0 
1 27 81 0 
1 -58 97 0 
1 -23 11 0 
1 -180 -9 0 
1 -96 -166 0 
1 70 144 0 
1 168 -34 0 
1 -53 166 0 
1 -171 -28 0 
1 -4 53 0 
1 -25 14 0 
1 36 -65 0 
1 -64 -173 0 
1 -161 9 0 
1 -141 -148 0 
1 -15 -144 0 
1 -71 -31 0 
1 -62 96 0 
1 -17 -19 0 
1 69 -59 0 
1 -11 -186 0 
1 44 -152 0 
1 -137 19 0 
1 89 -109 0 
1 -183 136 0 
1 -57 -45 0 
1 130 -35 0 
1 113 -140 0 
1 -129 47 0 
1 86 17 0 
1 -77 -1 0 
1 148 93 0 
1 154 -49 0 
1 136 159 0 
1 -12 39 0 
1 -144 -176 0 
1 77 -9 0 
1 89 -60 0 
1 4 -166 0 
1 102 50 0 
1 177 -76 0 
1 89 16 0 
1 162 -125 0 
1 78 -186 0 
1 -144 170 0 
1 -163 -169 0 
1 -175 120 0 
1 -161 171 0 
1 169 144 0 
1 -161 125 0 
1 47 -4 0 
1 92 -144 0 
1 -98 -21 0 
1 76 -7 0 
1 122 134 0 
1 115 162 0 
1 144 163 0 
1 116 -8 0 
1 -125 188 0 
1 -1 159 0 
1 124 -2 0 
1 144 176 0 
1 33 126 0 
1 153 -41 0 
1 -149 53 0 
1 112 36 0 
1 -140 -52 0 
1 -142 65 0 
1 12 18 0 
1 -51 98 0 
1 -66 -50 0 
1 -85 17 0 
1 117 -11 0 
1 90 177 0 
1 -51 189 0 
1 -70 -21 0 
1 92 101 0 
1 -147 -47 0 
1 114 -73 0 
1 142 -10 0 
1 -86 -47 0 
1 -122 48 0 
1 -152 116 0 
1 48 -3 0 
1 -116 105 0 
1 65 63 0 
1 116 39 0 
1 -110 -93 0 
1 130 10 0 
1 100 156 0 
1 -68 64 0 
1 127 17 0 
1 -189 134 0 
1 81 -19 0 
1 -179 182 0 
1 109 96 0 
1 37 -78 0 
1 69 168 0 
1 -159 97 0 
1 117 -128 0 
1 16 -17 0 
1 -102 -98 0 
1 -186 143 0 
1 115 187 0 
1 -179 136 0 
1 -163 114 0 
1 -55 -62 0 
1 113 23 0 
1 13 -115 0 
1 58 -168 0 
1 18 9 0 
1 28 104 0 
1 -42 -105 0 
1 52 -13 0 
1 -82 -43 0 
1 17 -25 0 
1 -28 32 0 
1 110 74 0 
1 -15 -46 0 
1 -28 -84 0 
1 174 46 0 
1 103 70 0 
1 -84 -163 0 
1 13 -22 0 
1 61 44 0 
1 43 -102 0 
1 -100 78 0 
1 -92 147 0 
1 107 55 0 
1 -187 182 0 
1 70 30 0 
1 -84 35 0 
1 171 -16 0 
1 144 102 0 
1 -179 41 0 
1 117 -167 0 
1 141 52 0 
1 -42 -116 0 
1 35 -54 0 
1 75 -90 0 
1 -83 177 0 
1 -181 -111 0 
1 115 -33 0 
1 45 146 0 
1 41 -184 0 
1 86 -119 0 
1 -146 112 0 
1 -22 131 0 
1 -130 176 0 
1 -24 -174 0 
1 82 -144 0 
1 113 -36 0 
1 -120 157 0 
1 79 -94 0 
1 118 -29 0 
1 -58 -143 0 
1 -151 -180 0 
1 71 -36 0 
1 -174 166 0 
1 118 -115 0 
1 -171 -5 0 
1 5 -179 0 
1 39 80 0 
1 172 131 0 
1 -27 -10 0 
1 -4 145 0 
1 -44 179 0 
1 185 164 0 
1 170 97 0 
1 -71 66 0 
